# 12504
param k := 6;
param n := 50;
param s := 1;
set E :=  (0,3) (0,12) (1,12) (1,17) (1,20) (1,32) (1,48) (2,44) (3,4) (3,14) (3,24) (3,37) (4,36) (5,34) (5,43) (6,21) (6,45) (6,47) (7,28) (8,17) (8,43) (8,44) (9,19) (9,25) (9,40) (10,33) (10,47) (11,28) (11,30) (12,44) (13,28) (13,39) (14,21) (14,28) (14,42) (15,18) (15,44) (16,32) (17,40) (18,27) (19,34) (21,33) (22,29) (22,41) (22,46) (23,36) (24,41) (25,33) (26,40) (27,36) (27,38) (28,36) (31,34) (31,41) (34,48) (35,47) (37,49) (40,47) (45,47);